n_res = 3;
rc = [ 5, 9, 8 ];
n_tasks = 19;
d = [ 5, 2, 2, 5, 2, 3, 4, 5, 6, 6, 5, 3, 4, 3, 5, 6, 3, 2, 5 ];
rr = [| 3, 1, 2, 4, 2, 2, 2, 2, 3, 3, 3, 2, 4, 3, 2, 2, 5, 5, 3
      | 2, 2, 3, 3, 3, 1, 2, 1, 3, 2, 3, 2, 2, 2, 1, 1, 3, 1, 2
      | 3, 3, 1, 3, 3, 1, 1, 3, 2, 3, 2, 3, 2, 1, 1, 2, 2, 2, 3 |];
suc = [ {  },
       {  },
       { 5 },
       {  },
       { 6 },
       {  },
       { 16 },
       { 18 },
       {  },
       {  },
       {  },
       {  },
       {  },
       {  },
       {  },
       {  },
       {  },
       {  },
       {  } ];
t_max = 76;
deadline = [| 16, 4, 2
 | 32, 1, 4
 | 9, 3, 3
 | 15, 1, 3
 | 25, 0, 3
 | 24, 3, 3
 | 34, 4, 2
 | 11, 0, 2
 | 20, 1, 2
 | 24, 4, 2
 | 31, 0, 3
 | 22, 1, 2
 | 16, 3, 0
 | 1, 3, 1
 | 23, 4, 4
 | 34, 1, 2
 | 36, 0, 4
 | 15, 2, 1
 | 23, 1, 2 |];
